Fe
1.0
     1.0000000000000000      0.0000000000000000      0.0000000000000000
     0.0000000000000000      1.0000000000000000      0.0000000000000000
     0.0000000000000000      0.0000000000000000     10.0000000000000000
64
Cart
    0.0000000000000000     0.0000000000000000     0.0000000000000000
    0.0000000000000000     0.2500000000000000     0.2500000000000000
    0.2500000000000000     0.0000000000000000     0.2500000000000000
    0.2500000000000000     0.2500000000000000     0.0000000000000000
    0.0000000000000000     0.0000000000000000     0.5000000000000000
    0.0000000000000000     0.2500000000000000     0.7500000000000000
    0.2500000000000000     0.0000000000000000     0.7500000000000000
    0.2500000000000000     0.2500000000000000     0.5000000000000000
    0.0000000000000000     0.0000000000000000     1.0000000000000000
    0.0000000000000000     0.2500000000000000     1.2500000000000000
    0.2500000000000000     0.0000000000000000     1.2500000000000000
    0.2500000000000000     0.2500000000000000     1.0000000000000000
    0.0000000000000000     0.0000000000000000     1.5000000000000000
    0.0000000000000000     0.2500000000000000     1.7500000000000000
    0.2500000000000000     0.0000000000000000     1.7500000000000000
    0.2500000000000000     0.2500000000000000     1.5000000000000000
    0.0000000000000000     0.5000000000000000     0.0000000000000000
    0.0000000000000000     0.7500000000000000     0.2500000000000000
    0.2500000000000000     0.5000000000000000     0.2500000000000000
    0.2500000000000000     0.7500000000000000     0.0000000000000000
    0.0000000000000000     0.5000000000000000     0.5000000000000000
    0.0000000000000000     0.7500000000000000     0.7500000000000000
    0.2500000000000000     0.5000000000000000     0.7500000000000000
    0.2500000000000000     0.7500000000000000     0.5000000000000000
    0.0000000000000000     0.5000000000000000     1.0000000000000000
    0.0000000000000000     0.7500000000000000     1.2500000000000000
    0.2500000000000000     0.5000000000000000     1.2500000000000000
    0.2500000000000000     0.7500000000000000     1.0000000000000000
    0.0000000000000000     0.5000000000000000     1.5000000000000000
    0.0000000000000000     0.7500000000000000     1.7500000000000000
    0.2500000000000000     0.5000000000000000     1.7500000000000000
    0.2500000000000000     0.7500000000000000     1.5000000000000000
    0.5000000000000000     0.0000000000000000     0.0000000000000000
    0.5000000000000000     0.2500000000000000     0.2500000000000000
    0.7500000000000000     0.0000000000000000     0.2500000000000000
    0.7500000000000000     0.2500000000000000     0.0000000000000000
    0.5000000000000000     0.0000000000000000     0.5000000000000000
    0.5000000000000000     0.2500000000000000     0.7500000000000000
    0.7500000000000000     0.0000000000000000     0.7500000000000000
    0.7500000000000000     0.2500000000000000     0.5000000000000000
    0.5000000000000000     0.0000000000000000     1.0000000000000000
    0.5000000000000000     0.2500000000000000     1.2500000000000000
    0.7500000000000000     0.0000000000000000     1.2500000000000000
    0.7500000000000000     0.2500000000000000     1.0000000000000000
    0.5000000000000000     0.0000000000000000     1.5000000000000000
    0.5000000000000000     0.2500000000000000     1.7500000000000000
    0.7500000000000000     0.0000000000000000     1.7500000000000000
    0.7500000000000000     0.2500000000000000     1.5000000000000000
    0.5000000000000000     0.5000000000000000     0.0000000000000000
    0.5000000000000000     0.7500000000000000     0.2500000000000000
    0.7500000000000000     0.5000000000000000     0.2500000000000000
    0.7500000000000000     0.7500000000000000     0.0000000000000000
    0.5000000000000000     0.5000000000000000     0.5000000000000000
    0.5000000000000000     0.7500000000000000     0.7500000000000000
    0.7500000000000000     0.5000000000000000     0.7500000000000000
    0.7500000000000000     0.7500000000000000     0.5000000000000000
    0.5000000000000000     0.5000000000000000     1.0000000000000000
    0.5000000000000000     0.7500000000000000     1.2500000000000000
    0.7500000000000000     0.5000000000000000     1.2500000000000000
    0.7500000000000000     0.7500000000000000     1.0000000000000000
    0.5000000000000000     0.5000000000000000     1.5000000000000000
    0.5000000000000000     0.7500000000000000     1.7500000000000000
    0.7500000000000000     0.5000000000000000     1.7500000000000000
    0.7500000000000000     0.7500000000000000     1.5000000000000000
