SYSTEM = Fe -FCC - NM
PREC = Accurate
ENCUT = 300
EDIFF =1E-6
ISMEAR = -5 !(tetraedros)
ISPIN = 2 ! spin polarized calculation (ferro - magnetic )
MAGMOM = 4  ! initial magnetic moments (anti - ferromagnetic ordering )
LORBIT = 11
