Si HCP                                  
   3.00000000000000     
     1.0157546363678340    0.0000000000000000    0.0000000000000000
    -0.5078773181839170    0.8796693191063700   -0.0000000000000000
     0.0000000000000000   -0.0000000000000000    1.5827265899134568
    S
     2
Direct
  0.0000000000000000  0.0000000000000000  0.0000000000000000
  0.3333333333333286  0.6666666666666714  0.5000000000000000
 
  0.00000000E+00  0.00000000E+00  0.00000000E+00
  0.00000000E+00  0.00000000E+00  0.00000000E+00
