Si HCP                                  
   2.60000000000000     
     1.0090688767229143   -0.0000000000000000    0.0000000000000000
    -0.5045344383614572    0.8738792814102738    0.0000000000000000
     0.0000000000000000    0.0000000000000000    1.6037693261321682
    S
     2
Direct
 -0.0000000000000000  0.0000000000000000 -0.0000000000000000
  0.3333333333333286  0.6666666666666714  0.5000000000000000
 
  0.00000000E+00  0.00000000E+00  0.00000000E+00
  0.00000000E+00  0.00000000E+00  0.00000000E+00
