Si HCP                                  
   2.58000000000000     
     1.0088642508673547   -0.0000000000000000   -0.0000000000000000
    -0.5044321254336773    0.8737020702210883    0.0000000000000000
     0.0000000000000000   -0.0000000000000000    1.6044199705602782
    S
     2
Direct
 -0.0000000000000000 -0.0000000000000000 -0.0000000000000000
  0.3333333333333286  0.6666666666666714  0.5000000000000000
 
  0.00000000E+00  0.00000000E+00  0.00000000E+00
  0.00000000E+00  0.00000000E+00  0.00000000E+00
