Si HCP                                  
   2.40000000000000     
     1.0022036515702479   -0.0000000000000000   -0.0000000000000000
    -0.5011018257851240    0.8679338220253651    0.0000000000000000
    -0.0000000000000000    0.0000000000000000    1.6258166381288479
    S
     2
Direct
  0.0000000000000000 -0.0000000000000000 -0.0000000000000000
  0.3333333333333286  0.6666666666666714  0.5000000000000000
 
  0.00000000E+00  0.00000000E+00  0.00000000E+00
  0.00000000E+00  0.00000000E+00  0.00000000E+00
