Si HCP                                  
   2.65000000000000     
     1.0091883588589530    0.0000000000000000    0.0000000000000000
    -0.5045941794294765    0.8739827559753812   -0.0000000000000000
    -0.0000000000000000    0.0000000000000000    1.6033895943612759
    S
     2
Direct
  0.0000000000000000 -0.0000000000000000  0.0000000000000000
  0.3333333333333286  0.6666666666666714  0.5000000000000000
 
  0.00000000E+00  0.00000000E+00  0.00000000E+00
  0.00000000E+00  0.00000000E+00  0.00000000E+00
