Si HCP                                  
   2.54000000000000     
     1.0087908075306504    0.0000000000000000    0.0000000000000000
    -0.5043954037653252    0.8736384664257633    0.0000000000000000
    -0.0000000000000000    0.0000000000000000    1.6046535933185078
    S
     2
Direct
 -0.0000000000000000  0.0000000000000000  0.0000000000000000
  0.3333333333333286  0.6666666666666714  0.5000000000000000
 
  0.00000000E+00  0.00000000E+00  0.00000000E+00
  0.00000000E+00  0.00000000E+00  0.00000000E+00
