Si HCP
2.54
   1.00000         0.00000000000000      0.00000
  -0.50000         0.86602540378444      0.00000
   0.00000         0.00000000000000      1.63299
2
direct
   0.00000000000000    0.00000000000000      0.000000
   0.33333333333333    0.66666666666667      0.500000
