Si HCP                                  
   2.56000000000000     
     1.0089557635209374    0.0000000000000000    0.0000000000000000
    -0.5044778817604687    0.8737813225038583   -0.0000000000000000
    -0.0000000000000000    0.0000000000000000    1.6041289408129951
    S
     2
Direct
  0.0000000000000000  0.0000000000000000  0.0000000000000000
  0.3333333333333286  0.6666666666666714  0.5000000000000000
 
  0.00000000E+00  0.00000000E+00  0.00000000E+00
  0.00000000E+00  0.00000000E+00  0.00000000E+00
