diamond Si
10.26
0.0 0.5 0.5
0.5 0.0 0.5
0.5 0.5 0.0
2
Cartesian
0.0  0.0  0.0
0.25 0.25 0.25

