diamond Si
5.5
0.0 0.5 0.5
0.5 0.0 0.5
0.5 0.5 0.0
Si
2
Cartesian
0.0  0.0  0.0       
0.25 0.25 0.25
