Si HCP                                  
   2.45000000000000     
     1.0022641967320312    0.0000000000000000    0.0000000000000000
    -0.5011320983660156    0.8679862556735453   -0.0000000000000000
    -0.0000000000000000    0.0000000000000000    1.6256202181458796
    S
     2
Direct
 -0.0000000000000000  0.0000000000000000 -0.0000000000000000
  0.3333333333333286  0.6666666666666714  0.5000000000000000
 
  0.00000000E+00  0.00000000E+00  0.00000000E+00
  0.00000000E+00  0.00000000E+00  0.00000000E+00
