Si HCP                                  
   2.52000000000000     
     1.0041615379893647    0.0000000000000000    0.0000000000000000
    -0.5020807689946823    0.8696294014020443    0.0000000000000000
     0.0000000000000000    0.0000000000000000    1.6194828741425829
    S
     2
Direct
 -0.0000000000000000  0.0000000000000000  0.0000000000000000
  0.3333333333333286  0.6666666666666714  0.5000000000000000
 
  0.00000000E+00  0.00000000E+00  0.00000000E+00
  0.00000000E+00  0.00000000E+00  0.00000000E+00
