Fe BCC
2.74
-0.5  0.5  0.5
 0.5 -0.5  0.5
 0.5  0.5 -0.5
Fe
1
Direct
0.000000000000 0.000000000000000 0.000000000000

