Si HCP                                  
   2.30000000000000     
     1.0021640429952514    0.0000000000000000    0.0000000000000000
    -0.5010820214976257    0.8678995199932189   -0.0000000000000000
     0.0000000000000000    0.0000000000000000    1.6259451551181625
    S
     2
Direct
 -0.0000000000000000 -0.0000000000000000  0.0000000000000000
  0.3333333333333286  0.6666666666666714  0.5000000000000000
 
  0.00000000E+00  0.00000000E+00  0.00000000E+00
  0.00000000E+00  0.00000000E+00  0.00000000E+00
