Si HCP                                  
   2.90000000000000     
     1.0144248783183629    0.0000000000000000    0.0000000000000000
    -0.5072124391591815    0.8785177148546415    0.0000000000000000
     0.0000000000000000    0.0000000000000000    1.5868787413504846
    S
     2
Direct
  0.0000000000000000  0.0000000000000000  0.0000000000000000
  0.3333333333333286  0.6666666666666714  0.5000000000000000
 
  0.00000000E+00  0.00000000E+00  0.00000000E+00
  0.00000000E+00  0.00000000E+00  0.00000000E+00
