Si HCP                                  
   2.00000000000000     
     0.9934216120011815    0.0000000000000000    0.0000000000000000
    -0.4967108060005908    0.8603283526615139    0.0000000000000000
     0.0000000000000000   -0.0000000000000000    1.6546887624246531
    S
     2
Direct
 -0.0000000000000000  0.0000000000000000  0.0000000000000000
  0.3333333333333286  0.6666666666666714  0.5000000000000000
 
  0.00000000E+00  0.00000000E+00  0.00000000E+00
  0.00000000E+00  0.00000000E+00  0.00000000E+00
