Si HCP                                  
   2.10000000000000     
     0.9917275322890088   -0.0000000000000000   -0.0000000000000000
    -0.4958637661445044    0.8588612365947360   -0.0000000000000000
     0.0000000000000000   -0.0000000000000000    1.6603467053125929
    S
     2
Direct
  0.0000000000000000 -0.0000000000000000  0.0000000000000000
  0.3333333333333286  0.6666666666666714  0.5000000000000000
 
  0.00000000E+00  0.00000000E+00  0.00000000E+00
  0.00000000E+00  0.00000000E+00  0.00000000E+00
