Si HCP                                  
   2.50000000000000     
     1.0023213389144678   -0.0000000000000000   -0.0000000000000000
    -0.5011606694572339    0.8680357422551628    0.0000000000000000
     0.0000000000000000    0.0000000000000000    1.6254348707216419
    S
     2
Direct
 -0.0000000000000000  0.0000000000000000  0.0000000000000000
  0.3333333333333286  0.6666666666666714  0.5000000000000000
 
  0.00000000E+00  0.00000000E+00  0.00000000E+00
  0.00000000E+00  0.00000000E+00  0.00000000E+00
