Si HCP                                  
   2.20000000000000     
     0.9912678545449328   -0.0000000000000000    0.0000000000000000
    -0.4956339272724664    0.8584631439908121   -0.0000000000000000
    -0.0000000000000000    0.0000000000000000    1.6618869578049897
    S
     2
Direct
 -0.0000000000000000  0.0000000000000000 -0.0000000000000000
  0.3333333333333286  0.6666666666666714  0.5000000000000000
 
  0.00000000E+00  0.00000000E+00  0.00000000E+00
  0.00000000E+00  0.00000000E+00  0.00000000E+00
