Si HCP                                  
   2.70000000000000     
     1.0098232886668881    0.0000000000000000    0.0000000000000000
    -0.5049116443334440    0.8745326213186729    0.0000000000000000
     0.0000000000000000    0.0000000000000000    1.6013739549704717
    S
     2
Direct
 -0.0000000000000000 -0.0000000000000000 -0.0000000000000000
  0.3333333333333286  0.6666666666666714  0.5000000000000000
 
  0.00000000E+00  0.00000000E+00  0.00000000E+00
  0.00000000E+00  0.00000000E+00  0.00000000E+00
