beta Si
6.0
1.0 0.0 0.0
0.0 1.0 0.0
0.5 0.5 0.26
2
Direct
-0.125 -0.375 0.25
 0.125 0.375 -0.25
