Fe BCC
2.85
-0.5000000000 0.5000000000000000000 0.50000000000000
0.5000000000 -0.5000000000000000000 0.50000000000000
0.5000000000 0.5000000000000000000 -0.50000000000000
Fe
1
Direct
0.000000000000 0.000000000000000 0.000000000000
