Si HCP                                  
   2.80000000000000     
     1.0129337937758391    0.0000000000000000    0.0000000000000000
    -0.5064668968879196    0.8772263977616258   -0.0000000000000000
     0.0000000000000000    0.0000000000000000    1.5915540951233538
    S
     2
Direct
 -0.0000000000000000  0.0000000000000000  0.0000000000000000
  0.3333333333333286  0.6666666666666714  0.5000000000000000
 
  0.00000000E+00  0.00000000E+00  0.00000000E+00
  0.00000000E+00  0.00000000E+00  0.00000000E+00
